
Gurobi 6.5.2 (linux64) logging started Tue Sep 20 21:16:18 2016


Gurobi 6.5.2 (linux64) logging started Tue Sep 20 21:16:18 2016

Optimize a model with 21 rows, 41 columns and 85 nonzeros
Coefficient statistics:
  Matrix range    [1e+00, 2e+00]
  Objective range [4e+00, 1e+02]
  Bounds range    [1e+00, 1e+00]
  RHS range       [1e+00, 1e+00]
Found heuristic solution: objective 647
Presolve removed 11 rows and 9 columns
Presolve time: 0.00s
Presolved: 10 rows, 32 columns, 63 nonzeros
Variable types: 0 continuous, 32 integer (32 binary)

Root relaxation: objective 4.000000e+02, 13 iterations, 0.00 seconds

    Nodes    |    Current Node    |     Objective Bounds      |     Work
 Expl Unexpl |  Obj  Depth IntInf | Incumbent    BestBd   Gap | It/Node Time

     0     0  400.00000    0    4  647.00000  400.00000  38.2%     -    0s
H    0     0                     407.0000000  400.00000  1.72%     -    0s
H    0     0                     404.0000000  400.00000  0.99%     -    0s

Explored 0 nodes (13 simplex iterations) in 0.00 seconds
Thread count was 8 (of 8 available processors)

Optimal solution found (tolerance 1.00e-04)
Best objective 4.040000000000e+02, best bound 4.040000000000e+02, gap 0.0%
